instances/shortest_path/discrete/shortest_path_5_16.mps
* Signature: 0xa1d49c5c4aa8e6b7
NAME nohadani_5_16
ROWS
 N  OBJ
 E  flow_cons_inner_nodes[0]
 E  flow_cons_inner_nodes[3]
 E  flow_cons_inner_nodes[4]
 E  flow_cons_source
 E  flow_cons_target
 L  primal_lower
 L  mccormick1[0,2]
 L  mccormick1[0,3]
 L  mccormick1[0,4]
 L  mccormick1[1,3]
 L  mccormick1[1,4]
 L  mccormick1[2,0]
 L  mccormick1[2,3]
 L  mccormick1[2,4]
 L  mccormick1[3,0]
 L  mccormick1[3,1]
 L  mccormick1[3,2]
 L  mccormick1[3,4]
 L  mccormick1[4,0]
 L  mccormick1[4,1]
 L  mccormick1[4,2]
 L  mccormick1[4,3]
 L  mccormick2[0,2]
 L  mccormick2[0,3]
 L  mccormick2[0,4]
 L  mccormick2[1,3]
 L  mccormick2[1,4]
 L  mccormick2[2,0]
 L  mccormick2[2,3]
 L  mccormick2[2,4]
 L  mccormick2[3,0]
 L  mccormick2[3,1]
 L  mccormick2[3,2]
 L  mccormick2[3,4]
 L  mccormick2[4,0]
 L  mccormick2[4,1]
 L  mccormick2[4,2]
 L  mccormick2[4,3]
 G  mccormick3[0,2]
 G  mccormick3[0,3]
 G  mccormick3[0,4]
 G  mccormick3[1,3]
 G  mccormick3[1,4]
 G  mccormick3[2,0]
 G  mccormick3[2,3]
 G  mccormick3[2,4]
 G  mccormick3[3,0]
 G  mccormick3[3,1]
 G  mccormick3[3,2]
 G  mccormick3[3,4]
 G  mccormick3[4,0]
 G  mccormick3[4,1]
 G  mccormick3[4,2]
 G  mccormick3[4,3]
COLUMNS
    MARKER    'MARKER'                 'INTORG'
    y[0,2]    OBJ       8
    y[0,2]    flow_cons_inner_nodes[0]  -1
    y[0,2]    flow_cons_target  1
    y[0,2]    mccormick2[0,2]  -1
    y[0,2]    mccormick3[0,2]  -1
    y[0,3]    OBJ       69.01
    y[0,3]    flow_cons_inner_nodes[0]  -1
    y[0,3]    flow_cons_inner_nodes[3]  1
    y[0,3]    mccormick2[0,3]  -1
    y[0,3]    mccormick3[0,3]  -1
    y[0,4]    OBJ       31.06
    y[0,4]    flow_cons_inner_nodes[0]  -1
    y[0,4]    flow_cons_inner_nodes[4]  1
    y[0,4]    mccormick2[0,4]  -1
    y[0,4]    mccormick3[0,4]  -1
    y[1,3]    OBJ       73.08
    y[1,3]    flow_cons_inner_nodes[3]  1
    y[1,3]    flow_cons_source  1
    y[1,3]    mccormick2[1,3]  -1
    y[1,3]    mccormick3[1,3]  -1
    y[1,4]    OBJ       53.01
    y[1,4]    flow_cons_inner_nodes[4]  1
    y[1,4]    flow_cons_source  1
    y[1,4]    mccormick2[1,4]  -1
    y[1,4]    mccormick3[1,4]  -1
    y[2,0]    OBJ       8
    y[2,0]    flow_cons_inner_nodes[0]  1
    y[2,0]    flow_cons_target  -1
    y[2,0]    mccormick2[2,0]  -1
    y[2,0]    mccormick3[2,0]  -1
    y[2,3]    OBJ       77.01
    y[2,3]    flow_cons_inner_nodes[3]  1
    y[2,3]    flow_cons_target  -1
    y[2,3]    mccormick2[2,3]  -1
    y[2,3]    mccormick3[2,3]  -1
    y[2,4]    OBJ       36.07
    y[2,4]    flow_cons_inner_nodes[4]  1
    y[2,4]    flow_cons_target  -1
    y[2,4]    mccormick2[2,4]  -1
    y[2,4]    mccormick3[2,4]  -1
    y[3,0]    OBJ       69.01
    y[3,0]    flow_cons_inner_nodes[0]  1
    y[3,0]    flow_cons_inner_nodes[3]  -1
    y[3,0]    mccormick2[3,0]  -1
    y[3,0]    mccormick3[3,0]  -1
    y[3,1]    OBJ       73.08
    y[3,1]    flow_cons_inner_nodes[3]  -1
    y[3,1]    flow_cons_source  -1
    y[3,1]    mccormick2[3,1]  -1
    y[3,1]    mccormick3[3,1]  -1
    y[3,2]    OBJ       77.01
    y[3,2]    flow_cons_inner_nodes[3]  -1
    y[3,2]    flow_cons_target  1
    y[3,2]    mccormick2[3,2]  -1
    y[3,2]    mccormick3[3,2]  -1
    y[3,4]    OBJ       58.59
    y[3,4]    flow_cons_inner_nodes[3]  -1
    y[3,4]    flow_cons_inner_nodes[4]  1
    y[3,4]    mccormick2[3,4]  -1
    y[3,4]    mccormick3[3,4]  -1
    y[4,0]    OBJ       31.06
    y[4,0]    flow_cons_inner_nodes[0]  1
    y[4,0]    flow_cons_inner_nodes[4]  -1
    y[4,0]    mccormick2[4,0]  -1
    y[4,0]    mccormick3[4,0]  -1
    y[4,1]    OBJ       53.01
    y[4,1]    flow_cons_inner_nodes[4]  -1
    y[4,1]    flow_cons_source  -1
    y[4,1]    mccormick2[4,1]  -1
    y[4,1]    mccormick3[4,1]  -1
    y[4,2]    OBJ       36.07
    y[4,2]    flow_cons_inner_nodes[4]  -1
    y[4,2]    flow_cons_target  1
    y[4,2]    mccormick2[4,2]  -1
    y[4,2]    mccormick3[4,2]  -1
    y[4,3]    OBJ       58.59
    y[4,3]    flow_cons_inner_nodes[3]  1
    y[4,3]    flow_cons_inner_nodes[4]  -1
    y[4,3]    mccormick2[4,3]  -1
    y[4,3]    mccormick3[4,3]  -1
    x[0,2]    OBJ       1
    x[0,2]    primal_lower  1.73
    x[0,3]    OBJ       1
    x[0,3]    primal_lower  2.14
    x[0,4]    OBJ       1
    x[0,4]    primal_lower  2.36
    x[1,3]    OBJ       1
    x[1,3]    primal_lower  0.36
    x[1,4]    OBJ       1
    x[1,4]    primal_lower  2.72
    x[2,0]    OBJ       1
    x[2,0]    primal_lower  1.38
    x[2,3]    OBJ       1
    x[2,3]    primal_lower  1.47
    x[2,4]    OBJ       1
    x[2,4]    primal_lower  1.78
    x[3,0]    OBJ       1
    x[3,0]    primal_lower  3.88
    x[3,1]    OBJ       1
    x[3,1]    primal_lower  4.6
    x[3,2]    OBJ       1
    x[3,2]    primal_lower  3.75
    x[3,4]    OBJ       1
    x[3,4]    primal_lower  1.81
    x[4,0]    OBJ       1
    x[4,0]    primal_lower  0.77
    x[4,1]    OBJ       1
    x[4,1]    primal_lower  2.6
    x[4,2]    OBJ       1
    x[4,2]    primal_lower  3.7
    x[4,3]    OBJ       1
    x[4,3]    primal_lower  1.43
    u[0,2]    primal_lower  36
    u[0,2]    mccormick1[0,2]  -1
    u[0,2]    mccormick3[0,2]  -1
    u[0,3]    primal_lower  8
    u[0,3]    mccormick1[0,3]  -1
    u[0,3]    mccormick3[0,3]  -1
    u[0,4]    primal_lower  46
    u[0,4]    mccormick1[0,4]  -1
    u[0,4]    mccormick3[0,4]  -1
    u[1,3]    primal_lower  75
    u[1,3]    mccormick1[1,3]  -1
    u[1,3]    mccormick3[1,3]  -1
    u[1,4]    primal_lower  64
    u[1,4]    mccormick1[1,4]  -1
    u[1,4]    mccormick3[1,4]  -1
    u[2,0]    primal_lower  54
    u[2,0]    mccormick1[2,0]  -1
    u[2,0]    mccormick3[2,0]  -1
    u[2,3]    primal_lower  9
    u[2,3]    mccormick1[2,3]  -1
    u[2,3]    mccormick3[2,3]  -1
    u[2,4]    primal_lower  76
    u[2,4]    mccormick1[2,4]  -1
    u[2,4]    mccormick3[2,4]  -1
    u[3,0]    primal_lower  37
    u[3,0]    mccormick1[3,0]  -1
    u[3,0]    mccormick3[3,0]  -1
    u[3,1]    primal_lower  18
    u[3,1]    mccormick1[3,1]  -1
    u[3,1]    mccormick3[3,1]  -1
    u[3,2]    primal_lower  52
    u[3,2]    mccormick1[3,2]  -1
    u[3,2]    mccormick3[3,2]  -1
    u[3,4]    primal_lower  19
    u[3,4]    mccormick1[3,4]  -1
    u[3,4]    mccormick3[3,4]  -1
    u[4,0]    primal_lower  48
    u[4,0]    mccormick1[4,0]  -1
    u[4,0]    mccormick3[4,0]  -1
    u[4,1]    primal_lower  44
    u[4,1]    mccormick1[4,1]  -1
    u[4,1]    mccormick3[4,1]  -1
    u[4,2]    primal_lower  49
    u[4,2]    mccormick1[4,2]  -1
    u[4,2]    mccormick3[4,2]  -1
    u[4,3]    primal_lower  9
    u[4,3]    mccormick1[4,3]  -1
    u[4,3]    mccormick3[4,3]  -1
    r[0,2]    OBJ       0.8
    r[0,2]    mccormick1[0,2]  1
    r[0,2]    mccormick2[0,2]  1
    r[0,2]    mccormick3[0,2]  1
    r[0,3]    OBJ       6.9010000000000007e+00
    r[0,3]    mccormick1[0,3]  1
    r[0,3]    mccormick2[0,3]  1
    r[0,3]    mccormick3[0,3]  1
    r[0,4]    OBJ       3.106
    r[0,4]    mccormick1[0,4]  1
    r[0,4]    mccormick2[0,4]  1
    r[0,4]    mccormick3[0,4]  1
    r[1,3]    OBJ       7.308
    r[1,3]    mccormick1[1,3]  1
    r[1,3]    mccormick2[1,3]  1
    r[1,3]    mccormick3[1,3]  1
    r[1,4]    OBJ       5.301
    r[1,4]    mccormick1[1,4]  1
    r[1,4]    mccormick2[1,4]  1
    r[1,4]    mccormick3[1,4]  1
    r[2,0]    OBJ       0.8
    r[2,0]    mccormick1[2,0]  1
    r[2,0]    mccormick2[2,0]  1
    r[2,0]    mccormick3[2,0]  1
    r[2,3]    OBJ       7.7010000000000005e+00
    r[2,3]    mccormick1[2,3]  1
    r[2,3]    mccormick2[2,3]  1
    r[2,3]    mccormick3[2,3]  1
    r[2,4]    OBJ       3.607
    r[2,4]    mccormick1[2,4]  1
    r[2,4]    mccormick2[2,4]  1
    r[2,4]    mccormick3[2,4]  1
    r[3,0]    OBJ       6.9010000000000007e+00
    r[3,0]    mccormick1[3,0]  1
    r[3,0]    mccormick2[3,0]  1
    r[3,0]    mccormick3[3,0]  1
    r[3,1]    OBJ       7.308
    r[3,1]    mccormick1[3,1]  1
    r[3,1]    mccormick2[3,1]  1
    r[3,1]    mccormick3[3,1]  1
    r[3,2]    OBJ       7.7010000000000005e+00
    r[3,2]    mccormick1[3,2]  1
    r[3,2]    mccormick2[3,2]  1
    r[3,2]    mccormick3[3,2]  1
    r[3,4]    OBJ       5.8590000000000009e+00
    r[3,4]    mccormick1[3,4]  1
    r[3,4]    mccormick2[3,4]  1
    r[3,4]    mccormick3[3,4]  1
    r[4,0]    OBJ       3.106
    r[4,0]    mccormick1[4,0]  1
    r[4,0]    mccormick2[4,0]  1
    r[4,0]    mccormick3[4,0]  1
    r[4,1]    OBJ       5.301
    r[4,1]    mccormick1[4,1]  1
    r[4,1]    mccormick2[4,1]  1
    r[4,1]    mccormick3[4,1]  1
    r[4,2]    OBJ       3.607
    r[4,2]    mccormick1[4,2]  1
    r[4,2]    mccormick2[4,2]  1
    r[4,2]    mccormick3[4,2]  1
    r[4,3]    OBJ       5.8590000000000009e+00
    r[4,3]    mccormick1[4,3]  1
    r[4,3]    mccormick2[4,3]  1
    r[4,3]    mccormick3[4,3]  1
    MARKER    'MARKER'                 'INTEND'
RHS
    RHS1      flow_cons_source  1
    RHS1      flow_cons_target  1
    RHS1      primal_lower  76
    RHS1      mccormick3[0,2]  -1
    RHS1      mccormick3[0,3]  -1
    RHS1      mccormick3[0,4]  -1
    RHS1      mccormick3[1,3]  -1
    RHS1      mccormick3[1,4]  -1
    RHS1      mccormick3[2,0]  -1
    RHS1      mccormick3[2,3]  -1
    RHS1      mccormick3[2,4]  -1
    RHS1      mccormick3[3,0]  -1
    RHS1      mccormick3[3,1]  -1
    RHS1      mccormick3[3,2]  -1
    RHS1      mccormick3[3,4]  -1
    RHS1      mccormick3[4,0]  -1
    RHS1      mccormick3[4,1]  -1
    RHS1      mccormick3[4,2]  -1
    RHS1      mccormick3[4,3]  -1
BOUNDS
 BV BND1      y[0,2]  
 BV BND1      y[0,3]  
 BV BND1      y[0,4]  
 BV BND1      y[1,3]  
 BV BND1      y[1,4]  
 BV BND1      y[2,0]  
 BV BND1      y[2,3]  
 BV BND1      y[2,4]  
 BV BND1      y[3,0]  
 BV BND1      y[3,1]  
 BV BND1      y[3,2]  
 BV BND1      y[3,4]  
 BV BND1      y[4,0]  
 BV BND1      y[4,1]  
 BV BND1      y[4,2]  
 BV BND1      y[4,3]  
 BV BND1      x[0,2]  
 BV BND1      x[0,3]  
 BV BND1      x[0,4]  
 BV BND1      x[1,3]  
 BV BND1      x[1,4]  
 BV BND1      x[2,0]  
 BV BND1      x[2,3]  
 BV BND1      x[2,4]  
 BV BND1      x[3,0]  
 BV BND1      x[3,1]  
 BV BND1      x[3,2]  
 BV BND1      x[3,4]  
 BV BND1      x[4,0]  
 BV BND1      x[4,1]  
 BV BND1      x[4,2]  
 BV BND1      x[4,3]  
 BV BND1      u[0,2]  
 BV BND1      u[0,3]  
 BV BND1      u[0,4]  
 BV BND1      u[1,3]  
 BV BND1      u[1,4]  
 BV BND1      u[2,0]  
 BV BND1      u[2,3]  
 BV BND1      u[2,4]  
 BV BND1      u[3,0]  
 BV BND1      u[3,1]  
 BV BND1      u[3,2]  
 BV BND1      u[3,4]  
 BV BND1      u[4,0]  
 BV BND1      u[4,1]  
 BV BND1      u[4,2]  
 BV BND1      u[4,3]  
 BV BND1      r[0,2]  
 BV BND1      r[0,3]  
 BV BND1      r[0,4]  
 BV BND1      r[1,3]  
 BV BND1      r[1,4]  
 BV BND1      r[2,0]  
 BV BND1      r[2,3]  
 BV BND1      r[2,4]  
 BV BND1      r[3,0]  
 BV BND1      r[3,1]  
 BV BND1      r[3,2]  
 BV BND1      r[3,4]  
 BV BND1      r[4,0]  
 BV BND1      r[4,1]  
 BV BND1      r[4,2]  
 BV BND1      r[4,3]  
ENDATA
